ClassProblems/AMPL/IMM-route-planning.txt
for {1..1} {
solve;
display delta;
}

